290 289 288 278 279 282 281 280 287 286 285 284 283 334 335 336 337 338 339 333 332 331 330 340 341 342 343 344 345 346 364 363 362 361 360 359 358 348 347 349 350 351 415 416 414 413 352 353 354 355 357 356 402 401 403 400 404 405 406 408 407 399 397 398 370 369 368 365 367 366 329 328 327 326 325 324 323 322 373 372 371 396 395 394 393 391 392 390 389 388 387 386 382 385 409 384 383 410 411 412 418 417 419 420 421 422 423 424 425 426 427 428 429 431 430 432 433 434 435 436 437 438 454 439 440 441 450 449 448 447 446 442 443 444 445 381 380 379 378 377 376 375 374 315 314 316 313 312 451 311 310 309 308 505 504 503 502 501 500 499 453 452 461 462 463 460 459 458 457 456 455 3 2 1 4 0 5 573 571 572 6 7 8 9 10 11 14 15 16 17 18 19 20 21 13 12 23 22 24 25 26 27 28 29 31 30 32 36 37 38 35 33 34 558 557 556 552 553 554 555 46 45 44 41 40 39 42 43 47 48 49 91 92 93 94 97 96 95 118 119 120 121 122 123 71 72 73 74 75 77 78 79 80 88 89 90 87 86 85 84 51 50 52 54 53 55 56 83 82 57 58 81 59 60 61 63 62 76 64 65 66 67 68 70 69 124 138 129 130 131 132 133 134 135 136 137 139 140 141 151 150 149 152 148 147 142 143 144 146 145 158 157 153 156 159 155 154 160 161 162 168 163 167 166 164 165 203 204 202 201 200 199 198 205 206 207 208 209 210 211 212 213 214 215 217 216 246 247 245 244 242 243 240 239 238 237 236 235 234 233 232 223 224 222 221 220 218 219 193 194 195 196 197 184 183 185 186 182 179 181 180 169 171 170 172 110 111 112 113 114 115 116 128 127 125 126 117 106 105 104 103 102 98 99 100 101 551 550 559 560 561 562 563 565 566 564 549 548 545 546 547 544 543 541 542 107 109 108 173 174 175 176 177 178 187 188 540 538 539 537 536 484 485 483 482 481 480 479 478 477 476 475 567 568 569 570 474 473 472 494 495 471 470 469 468 467 466 465 464 496 497 498 519 518 520 521 522 523 526 525 524 493 492 491 490 486 487 535 534 230 229 227 189 190 192 191 226 225 228 231 533 488 489 532 531 530 529 528 527 517 516 515 514 513 512 511 510 509 506 507 508 302 301 303 304 307 305 306 318 317 319 320 321 297 298 299 300 241 248 249 250 251 252 254 253 255 256 257 260 261 259 258 262 263 264 265 266 267 271 272 269 268 270 296 295 294 293 291 292 273 274 275 276 277